p wcnf 140 1200
7 -136 137 0
8 -135 -139 0
1 -132 -134 0
7 -131 -135 0
6 -129 137 0
3 -126 -133 0
2 -126 137 0
8 -123 -135 0
10 -122 -131 0
1 -122 132 0
2 -121 -130 0
7 -121 132 0
3 -120 121 0
3 -119 138 0
6 -118 -128 0
5 -117 126 0
3 -116 127 0
3 -116 139 0
1 -115 -135 0
2 -115 119 0
6 -112 -139 0
8 -112 114 0
3 -111 -137 0
1 -111 -128 0
9 -111 127 0
9 -111 134 0
4 -110 -137 0
1 -110 139 0
10 -108 -110 0
5 -108 130 0
4 -107 -110 0
7 -107 119 0
2 -107 132 0
4 -106 139 0
4 -105 114 0
7 -105 116 0
6 -105 132 0
5 -104 -136 0
5 -104 -123 0
5 -103 -123 0
5 -103 -110 0
6 -103 127 0
2 -103 128 0
7 -103 134 0
8 -102 -139 0
7 -102 -136 0
2 -101 -113 0
1 -101 -106 0
9 -101 117 0
2 -100 -129 0
2 -100 -105 0
5 -99 -106 0
9 -97 -112 0
5 -97 102 0
6 -97 125 0
8 -96 -106 0
4 -96 115 0
9 -95 -140 0
9 -95 113 0
4 -95 135 0
4 -94 136 0
2 -93 -122 0
10 -93 -98 0
5 -93 124 0
5 -92 -123 0
3 -92 113 0
2 -91 -103 0
1 -91 136 0
7 -90 -133 0
7 -90 -106 0
6 -90 92 0
2 -90 133 0
3 -89 -115 0
7 -89 -94 0
8 -89 102 0
10 -88 101 0
4 -87 -119 0
9 -87 -113 0
1 -87 -103 0
3 -87 111 0
10 -86 -119 0
2 -86 -116 0
7 -86 -113 0
9 -86 -94 0
6 -86 106 0
3 -85 -111 0
7 -85 -86 0
9 -85 91 0
2 -85 109 0
5 -85 137 0
2 -84 -129 0
5 -84 -124 0
7 -84 -94 0
2 -84 99 0
9 -83 -87 0
2 -82 -135 0
4 -82 -116 0
1 -82 101 0
3 -81 -139 0
1 -81 -138 0
7 -81 92 0
7 -81 101 0
3 -80 -125 0
9 -80 -96 0
4 -80 -82 0
10 -80 92 0
9 -80 123 0
7 -79 -126 0
8 -78 -120 0
9 -78 -118 0
9 -78 103 0
8 -78 135 0
1 -77 -82 0
6 -77 78 0
7 -77 107 0
6 -76 -110 0
8 -76 110 0
3 -76 111 0
5 -75 -84 0
9 -75 85 0
8 -75 114 0
6 -75 118 0
4 -75 135 0
5 -74 -129 0
7 -74 -85 0
3 -74 84 0
6 -74 104 0
1 -74 116 0
4 -74 127 0
7 -73 -133 0
2 -73 -131 0
10 -73 -117 0
5 -73 77 0
3 -72 -108 0
9 -72 -83 0
8 -72 99 0
3 -72 103 0
8 -72 113 0
5 -71 130 0
1 -70 -112 0
7 -70 -89 0
4 -70 -74 0
8 -70 77 0
7 -70 99 0
10 -70 107 0
5 -70 140 0
3 -68 -117 0
8 -68 -87 0
7 -68 106 0
6 -68 109 0
8 -67 -115 0
5 -67 -85 0
2 -67 91 0
2 -67 110 0
8 -67 134 0
9 -66 -70 0
4 -66 80 0
4 -66 104 0
9 -65 -118 0
7 -65 -111 0
2 -65 -102 0
10 -65 137 0
7 -64 -136 0
5 -64 -127 0
3 -64 -82 0
5 -64 -67 0
3 -64 69 0
5 -63 -130 0
3 -63 -103 0
7 -63 -93 0
6 -63 83 0
9 -63 112 0
1 -63 130 0
4 -63 131 0
6 -62 -136 0
1 -62 -82 0
7 -62 -77 0
7 -62 79 0
8 -62 105 0
4 -61 -115 0
4 -61 -106 0
6 -60 -137 0
8 -60 -83 0
5 -60 107 0
7 -59 -124 0
6 -59 -82 0
4 -59 81 0
10 -58 -116 0
9 -58 83 0
3 -58 93 0
7 -57 -86 0
10 -57 110 0
3 -56 -99 0
3 -56 -84 0
5 -56 112 0
5 -56 123 0
8 -56 140 0
7 -55 -108 0
9 -55 -74 0
10 -55 68 0
4 -55 72 0
5 -55 74 0
9 -54 -123 0
5 -54 -117 0
8 -54 76 0
4 -54 96 0
5 -53 -84 0
5 -53 54 0
1 -53 59 0
4 -53 83 0
8 -52 -134 0
4 -52 -130 0
8 -52 54 0
6 -52 86 0
8 -52 98 0
5 -52 134 0
3 -51 -136 0
2 -51 -135 0
5 -51 -111 0
2 -51 -92 0
4 -51 -66 0
1 -51 64 0
2 -51 121 0
6 -50 -104 0
4 -50 60 0
6 -50 115 0
10 -50 117 0
1 -50 130 0
3 -50 139 0
9 -49 -103 0
1 -49 -91 0
7 -49 -69 0
4 -49 -63 0
9 -49 -52 0
2 -49 89 0
2 -49 108 0
3 -48 -134 0
6 -48 -129 0
5 -48 -97 0
3 -48 -57 0
8 -48 54 0
4 -48 100 0
7 -47 -113 0
7 -47 -104 0
9 -47 -82 0
5 -47 -65 0
2 -47 -59 0
2 -47 112 0
6 -47 123 0
6 -46 -111 0
3 -46 -93 0
9 -45 -137 0
6 -45 -128 0
4 -45 -115 0
5 -45 -109 0
9 -45 -80 0
9 -45 -73 0
5 -45 57 0
9 -45 66 0
2 -44 -114 0
4 -44 52 0
9 -44 74 0
8 -44 76 0
7 -43 -123 0
8 -43 -87 0
9 -43 -74 0
7 -43 66 0
1 -43 75 0
5 -43 112 0
3 -42 -101 0
4 -42 -97 0
3 -42 60 0
5 -42 75 0
9 -42 100 0
9 -42 123 0
4 -42 133 0
4 -41 -125 0
10 -41 -73 0
5 -41 101 0
10 -41 132 0
5 -40 -131 0
7 -40 -125 0
9 -40 -59 0
1 -40 67 0
10 -39 -98 0
4 -39 -71 0
9 -39 90 0
8 -39 130 0
8 -38 -116 0
8 -38 -99 0
10 -38 -63 0
2 -38 -40 0
7 -38 69 0
8 -38 86 0
7 -38 99 0
5 -37 -123 0
7 -37 -107 0
5 -37 -102 0
5 -37 -50 0
1 -37 51 0
6 -37 77 0
7 -37 130 0
3 -36 -81 0
2 -36 41 0
7 -36 75 0
2 -36 110 0
5 -36 112 0
1 -35 134 0
2 -34 -118 0
9 -34 -114 0
10 -34 -113 0
6 -34 -110 0
6 -33 -133 0
9 -33 -58 0
6 -33 -52 0
6 -33 -43 0
3 -33 53 0
5 -33 59 0
4 -33 91 0
10 -33 110 0
3 -33 113 0
4 -32 -111 0
1 -32 -94 0
8 -32 -72 0
2 -32 -58 0
8 -32 -36 0
3 -32 111 0
7 -31 -95 0
2 -31 -51 0
7 -31 -48 0
8 -31 -35 0
7 -31 112 0
5 -30 -100 0
1 -30 -69 0
8 -30 -67 0
1 -30 -55 0
2 -30 72 0
3 -30 74 0
1 -30 114 0
3 -30 132 0
2 -29 -113 0
1 -29 -97 0
8 -29 68 0
7 -29 72 0
9 -29 126 0
4 -29 132 0
3 -29 136 0
2 -28 -136 0
8 -28 -91 0
6 -28 -88 0
1 -28 -85 0
9 -28 49 0
9 -28 106 0
2 -28 132 0
8 -27 -116 0
1 -27 -98 0
8 -27 -56 0
1 -27 34 0
8 -27 45 0
10 -27 51 0
7 -27 84 0
5 -26 -90 0
7 -26 -73 0
2 -26 -57 0
5 -26 -52 0
5 -26 31 0
2 -26 49 0
6 -26 50 0
7 -26 90 0
3 -26 113 0
8 -26 126 0
9 -25 -93 0
3 -25 -90 0
6 -25 -70 0
6 -25 -63 0
2 -25 -56 0
9 -25 63 0
8 -25 109 0
2 -25 121 0
7 -24 -138 0
5 -24 -126 0
3 -24 -94 0
6 -24 -71 0
4 -24 -63 0
3 -24 -57 0
4 -24 -56 0
4 -24 -42 0
2 -24 -39 0
4 -24 103 0
2 -23 -114 0
1 -23 -79 0
2 -23 -71 0
6 -23 -40 0
7 -23 -32 0
3 -23 35 0
2 -23 41 0
3 -23 61 0
4 -23 95 0
7 -23 107 0
9 -23 120 0
6 -22 -106 0
5 -22 -82 0
7 -22 -64 0
8 -22 -56 0
1 -22 -48 0
4 -22 -34 0
8 -21 -89 0
9 -21 26 0
2 -21 55 0
9 -21 65 0
6 -21 115 0
5 -20 -48 0
2 -20 -25 0
2 -20 46 0
8 -20 76 0
4 -20 99 0
5 -20 128 0
3 -19 -134 0
5 -19 -130 0
9 -19 -123 0
3 -19 -113 0
5 -19 -100 0
10 -19 -84 0
9 -19 -27 0
2 -19 29 0
2 -19 33 0
9 -19 70 0
4 -18 -135 0
6 -18 -108 0
6 -18 -84 0
3 -18 64 0
2 -18 89 0
1 -18 114 0
9 -17 -135 0
8 -17 -89 0
2 -17 -64 0
3 -17 -54 0
6 -17 -41 0
1 -17 20 0
4 -17 32 0
6 -17 41 0
6 -17 105 0
8 -16 -110 0
7 -16 -78 0
7 -16 113 0
7 -16 121 0
10 -16 131 0
3 -15 -114 0
8 -15 -111 0
4 -15 -108 0
1 -15 -101 0
2 -15 -41 0
8 -15 -39 0
10 -15 73 0
9 -15 82 0
10 -15 100 0
2 -15 102 0
9 -15 113 0
4 -15 131 0
7 -14 -102 0
5 -14 -77 0
6 -14 -64 0
8 -14 21 0
5 -14 34 0
5 -14 35 0
6 -14 43 0
6 -13 -137 0
7 -13 -100 0
2 -13 -57 0
6 -13 47 0
10 -13 71 0
7 -13 80 0
2 -12 -136 0
8 -12 -109 0
4 -12 -88 0
9 -12 -69 0
5 -12 15 0
3 -12 21 0
1 -12 78 0
3 -12 106 0
7 -11 -129 0
2 -11 -13 0
4 -11 50 0
5 -11 77 0
2 -11 135 0
4 -10 -84 0
5 -10 -52 0
3 -10 20 0
2 -10 109 0
8 -10 116 0
9 -9 -118 0
6 -9 -72 0
4 -9 -31 0
7 -9 -22 0
1 -9 -16 0
8 -9 121 0
3 -9 129 0
6 -8 -75 0
5 -8 -42 0
4 -8 -36 0
3 -8 -33 0
4 -8 10 0
10 -8 42 0
4 -8 87 0
2 -8 106 0
4 -8 126 0
3 -8 128 0
6 -7 -139 0
6 -7 -110 0
3 -7 -89 0
8 -7 -68 0
3 -7 -46 0
4 -7 35 0
2 -7 88 0
7 -7 113 0
4 -7 133 0
5 -6 -88 0
2 -6 -87 0
6 -6 -65 0
6 -6 42 0
9 -6 75 0
5 -6 83 0
2 -6 92 0
3 -6 100 0
2 -6 109 0
2 -6 124 0
10 -5 -135 0
3 -5 -93 0
8 -5 -46 0
4 -5 -20 0
6 -5 22 0
9 -5 34 0
8 -5 71 0
6 -4 -136 0
3 -4 -117 0
9 -4 -102 0
9 -4 -80 0
5 -4 -24 0
5 -4 30 0
5 -4 65 0
6 -4 71 0
3 -3 -122 0
7 -3 -102 0
9 -3 -100 0
5 -3 -71 0
4 -3 -32 0
3 -3 -22 0
9 -3 10 0
5 -3 32 0
8 -3 56 0
5 -3 80 0
4 -3 113 0
4 -2 -140 0
6 -2 -132 0
6 -2 -82 0
5 -2 -65 0
7 -2 -63 0
6 -2 -37 0
7 -2 -20 0
5 -2 -5 0
9 -2 9 0
3 -2 24 0
4 -2 29 0
7 -2 51 0
8 -2 82 0
6 -2 93 0
6 -2 109 0
7 -1 -98 0
10 -1 -96 0
10 -1 -86 0
2 -1 -76 0
6 -1 -60 0
3 -1 -50 0
7 -1 31 0
5 -1 46 0
7 -1 50 0
1 -1 79 0
7 -1 86 0
5 -1 109 0
5 -1 119 0
6 -1 121 0
9 -1 133 0
9 1 -134 0
8 1 -103 0
5 1 -85 0
5 1 -79 0
3 1 -63 0
2 1 -31 0
1 1 -6 0
9 1 -3 0
5 1 35 0
9 1 41 0
3 1 42 0
8 1 64 0
6 1 111 0
1 1 114 0
4 2 -66 0
2 2 -57 0
7 2 -46 0
4 2 -42 0
2 2 -23 0
8 2 -5 0
9 2 50 0
4 3 -39 0
5 3 46 0
5 3 51 0
1 3 70 0
6 3 71 0
2 3 83 0
6 3 119 0
10 4 -117 0
7 4 -113 0
5 4 -110 0
8 4 -92 0
5 4 11 0
8 4 46 0
3 4 85 0
7 4 96 0
9 4 105 0
4 4 124 0
7 5 -112 0
5 5 -56 0
3 5 -36 0
8 5 -19 0
3 5 14 0
8 6 -125 0
8 6 -82 0
6 6 -57 0
10 6 -12 0
5 6 20 0
10 6 27 0
2 6 136 0
3 7 -50 0
9 7 -21 0
5 7 46 0
8 7 51 0
4 7 58 0
6 7 88 0
3 7 89 0
5 8 -90 0
1 8 -73 0
3 8 -23 0
1 8 18 0
5 8 74 0
1 8 78 0
5 8 92 0
3 8 127 0
4 8 138 0
3 9 -45 0
2 9 -32 0
7 9 33 0
8 9 63 0
6 9 78 0
9 9 83 0
6 9 86 0
8 9 95 0
7 9 117 0
5 9 118 0
4 9 119 0
7 9 136 0
9 10 -104 0
4 10 -72 0
8 10 -60 0
2 10 -39 0
3 10 -21 0
3 10 -12 0
9 10 27 0
6 10 31 0
7 10 77 0
3 10 96 0
9 10 111 0
8 10 121 0
5 11 -127 0
9 11 -84 0
2 11 -78 0
5 11 -27 0
5 11 -20 0
5 11 42 0
8 11 89 0
7 11 91 0
6 12 -88 0
5 12 -81 0
5 12 -47 0
2 12 -45 0
3 12 80 0
1 12 111 0
9 12 128 0
9 13 -80 0
5 13 -38 0
4 13 26 0
6 13 30 0
4 13 72 0
7 14 -133 0
3 14 -127 0
5 14 -70 0
9 14 20 0
5 14 37 0
5 14 67 0
4 14 87 0
3 14 97 0
6 14 100 0
3 14 116 0
9 14 125 0
10 15 -125 0
3 15 -66 0
1 15 -65 0
5 15 24 0
7 16 -139 0
5 16 -113 0
3 16 -85 0
3 16 -52 0
1 16 -28 0
7 16 23 0
7 16 44 0
2 16 134 0
9 17 -125 0
7 17 -109 0
1 17 -35 0
8 17 75 0
2 17 93 0
4 17 114 0
3 18 -128 0
5 18 -102 0
9 18 -101 0
6 18 -63 0
10 18 -35 0
8 18 49 0
1 18 88 0
4 18 96 0
2 18 105 0
3 18 131 0
9 19 -122 0
4 19 -108 0
2 19 -85 0
9 19 -29 0
6 19 36 0
2 19 83 0
4 19 85 0
3 19 112 0
6 19 119 0
6 20 -118 0
5 20 -108 0
6 20 -97 0
3 20 -74 0
2 20 -63 0
8 20 105 0
1 21 -139 0
8 21 -124 0
8 21 -48 0
8 21 -26 0
10 21 69 0
2 21 94 0
1 22 -117 0
5 22 -114 0
2 22 -55 0
6 22 -39 0
4 22 -24 0
8 22 95 0
6 22 120 0
8 22 121 0
10 23 -93 0
8 23 -70 0
7 23 -30 0
4 23 -26 0
8 23 59 0
6 23 107 0
9 23 121 0
10 24 -137 0
9 24 -51 0
2 24 26 0
6 24 29 0
5 24 83 0
6 24 112 0
2 25 -99 0
7 25 -79 0
7 25 101 0
9 25 140 0
7 26 -66 0
5 26 -43 0
7 26 113 0
5 26 137 0
5 27 -74 0
8 27 -57 0
6 27 60 0
9 27 80 0
9 27 98 0
2 27 107 0
3 28 -133 0
7 28 -121 0
7 28 -73 0
10 28 -67 0
7 28 -61 0
5 28 43 0
7 28 53 0
10 28 76 0
3 28 138 0
3 29 -138 0
9 29 -71 0
3 29 -48 0
2 29 -34 0
10 29 -30 0
8 29 41 0
7 29 49 0
5 29 101 0
9 29 113 0
4 29 116 0
2 30 -135 0
8 30 -103 0
1 30 -75 0
6 30 -54 0
5 30 -52 0
5 30 41 0
1 30 50 0
3 30 54 0
1 30 61 0
9 30 63 0
2 30 101 0
2 30 108 0
2 30 126 0
8 31 -105 0
8 31 89 0
2 31 129 0
4 31 138 0
3 32 -137 0
8 32 -132 0
4 32 -82 0
6 32 -63 0
9 33 -130 0
3 33 -83 0
8 33 -76 0
1 33 -37 0
2 33 58 0
6 33 68 0
7 33 70 0
6 33 88 0
5 33 101 0
10 34 -132 0
8 34 -80 0
2 34 -66 0
10 34 62 0
4 35 -134 0
6 35 -128 0
5 35 -120 0
4 35 -90 0
8 35 -56 0
6 35 37 0
4 35 46 0
9 35 62 0
7 35 70 0
5 35 98 0
7 36 -123 0
5 36 -88 0
6 36 -70 0
1 36 -58 0
7 36 -51 0
4 36 -49 0
4 36 48 0
3 36 68 0
3 36 82 0
6 36 100 0
10 37 -121 0
3 37 -120 0
7 37 -111 0
5 37 -60 0
10 37 76 0
3 37 102 0
9 37 104 0
9 38 -137 0
1 38 -126 0
1 38 -71 0
9 38 -46 0
4 38 56 0
7 38 60 0
5 38 77 0
8 38 120 0
5 38 134 0
9 39 -134 0
1 39 -133 0
4 39 -90 0
6 39 61 0
5 39 70 0
10 39 71 0
10 39 93 0
1 39 117 0
1 40 -134 0
7 40 -114 0
4 40 46 0
4 40 53 0
9 40 60 0
6 40 88 0
9 40 99 0
9 40 117 0
8 40 125 0
6 40 129 0
5 41 -131 0
8 41 -90 0
8 41 -62 0
3 41 -52 0
7 41 56 0
8 41 84 0
4 41 119 0
6 41 125 0
2 41 138 0
9 42 -122 0
1 42 55 0
9 42 88 0
4 42 131 0
9 43 -128 0
9 43 -110 0
7 43 -92 0
5 43 -87 0
5 43 -82 0
7 43 76 0
5 43 90 0
5 43 139 0
7 44 93 0
2 44 109 0
8 44 126 0
2 45 -140 0
1 45 -117 0
4 45 -112 0
9 45 51 0
9 45 67 0
2 45 80 0
5 45 85 0
4 45 118 0
9 46 -133 0
4 46 75 0
6 46 83 0
6 46 92 0
2 46 97 0
9 47 -127 0
3 47 -67 0
3 47 116 0
8 48 -126 0
3 48 -65 0
2 48 -55 0
3 48 -50 0
2 48 74 0
2 48 129 0
9 49 -132 0
5 49 -113 0
5 49 -85 0
6 49 -61 0
9 49 110 0
9 49 117 0
4 50 -95 0
10 50 -93 0
7 50 -75 0
4 50 71 0
1 50 89 0
9 51 -107 0
4 51 75 0
9 52 -132 0
1 52 -105 0
8 52 -63 0
3 52 105 0
9 52 106 0
2 52 107 0
8 52 112 0
5 53 -128 0
3 53 -106 0
7 53 -86 0
7 53 -65 0
5 53 95 0
5 53 102 0
8 54 -117 0
7 54 62 0
7 55 -108 0
9 55 -81 0
7 55 70 0
6 55 81 0
4 55 84 0
3 55 91 0
2 55 123 0
3 55 133 0
2 56 -73 0
5 56 -64 0
3 56 57 0
7 56 67 0
8 56 97 0
3 56 108 0
7 56 110 0
2 57 -125 0
3 57 -78 0
7 57 61 0
9 57 65 0
5 57 72 0
6 57 86 0
10 57 114 0
3 57 116 0
10 58 91 0
3 58 95 0
9 58 117 0
6 59 -109 0
7 59 -92 0
4 59 -70 0
4 59 -61 0
3 59 69 0
1 59 80 0
3 59 85 0
10 59 125 0
6 60 -127 0
6 60 -104 0
2 60 -99 0
8 60 -93 0
8 60 -85 0
3 60 71 0
3 61 74 0
1 61 96 0
9 61 127 0
1 62 -138 0
4 62 -99 0
6 62 -67 0
2 62 65 0
5 63 -139 0
2 63 -131 0
1 63 68 0
9 63 134 0
7 64 -84 0
1 64 -77 0
1 64 69 0
7 64 83 0
3 64 117 0
9 65 -87 0
3 65 -72 0
9 65 84 0
3 65 110 0
6 65 124 0
2 65 132 0
4 65 140 0
8 66 -87 0
2 66 108 0
9 67 -140 0
4 67 -110 0
3 67 -73 0
6 67 -69 0
2 68 -88 0
5 68 -77 0
8 68 98 0
2 69 129 0
4 70 -129 0
9 70 -99 0
5 70 -89 0
8 70 79 0
10 71 -136 0
9 71 -122 0
10 71 -112 0
1 71 83 0
8 71 104 0
7 72 -130 0
2 72 -105 0
8 72 74 0
3 72 85 0
4 72 130 0
8 73 -85 0
5 73 86 0
3 73 109 0
10 73 110 0
10 74 95 0
4 74 106 0
3 75 -138 0
8 75 -133 0
5 75 -121 0
2 75 140 0
1 76 -86 0
7 76 87 0
8 76 88 0
2 76 99 0
2 76 121 0
6 76 125 0
4 77 -140 0
5 77 -130 0
5 77 -93 0
8 77 130 0
3 78 -135 0
5 78 -112 0
7 78 86 0
3 78 126 0
5 78 137 0
5 79 -99 0
8 80 -107 0
6 80 -90 0
3 80 -89 0
2 80 112 0
9 80 121 0
10 81 91 0
5 81 127 0
1 82 -131 0
10 83 -129 0
5 83 84 0
4 83 91 0
3 83 99 0
3 83 115 0
8 83 123 0
4 85 -129 0
3 85 -127 0
5 85 -124 0
2 85 -95 0
5 85 125 0
6 86 -92 0
7 86 108 0
7 86 121 0
10 86 123 0
2 87 -115 0
5 87 98 0
3 87 104 0
5 87 131 0
2 88 -138 0
5 88 122 0
9 89 -90 0
6 89 123 0
3 90 -103 0
5 90 98 0
8 90 114 0
4 91 -93 0
4 91 92 0
7 91 97 0
8 92 -118 0
4 92 -106 0
7 92 103 0
3 93 -109 0
7 93 -107 0
9 93 -94 0
5 93 102 0
5 93 119 0
3 93 121 0
7 95 114 0
9 95 122 0
4 96 -125 0
2 96 106 0
5 96 110 0
10 96 119 0
9 96 134 0
4 97 -136 0
2 97 -109 0
4 97 114 0
6 97 126 0
6 98 108 0
4 99 -102 0
10 99 137 0
5 100 -128 0
9 100 104 0
3 100 108 0
9 100 126 0
7 101 -130 0
6 101 -121 0
2 101 108 0
4 101 114 0
4 102 -114 0
5 102 -108 0
10 103 107 0
6 105 -123 0
2 105 -117 0
8 105 116 0
1 105 125 0
6 105 133 0
1 106 120 0
8 107 -127 0
5 107 -123 0
4 107 -109 0
9 107 116 0
9 107 121 0
4 107 124 0
7 107 136 0
4 108 -140 0
5 108 -129 0
10 108 -110 0
9 108 120 0
10 109 -125 0
4 109 -124 0
9 110 -137 0
5 110 -117 0
3 111 -133 0
2 111 118 0
4 112 -118 0
9 112 123 0
6 114 128 0
5 114 133 0
3 115 -128 0
9 115 136 0
9 116 117 0
2 116 127 0
5 117 -120 0
1 118 136 0
10 119 -134 0
5 119 -133 0
7 119 132 0
10 120 133 0
3 121 -137 0
2 122 135 0
4 123 -139 0
2 123 -133 0
10 123 132 0
8 123 137 0
8 124 -129 0
4 126 135 0
3 129 -132 0
8 131 136 0
2 135 140 0
